row=7;
column=7;
Board=[|0,0,0,0,3,0,5|2,0,0,0,0,7,0|7,0,4,0,0,0,0|1,0,0,0,0,0,7|3,7,0,0,4,0,0|0,3,1,0,0,2,0|6,0,0,2,0,0,3|];
OE=[|0,1,0,1,1,0,1|0,1,1,1,0,1,0|1,0,0,1,0,1,1|1,0,0,1,1,0,1|1,1,1,0,0,1,0|1,1,1,0,1,0,0|0,0,1,0,1,1,1|];
